Constraints: 33791
Variables  : 36864
Integers   : 36864
Semi-cont  : 0
SOS        : 0
Non-zeros  : 135156	density=0.010850%

Absolute Ranges:

       Minima                                  Maxima

Matrix Coeficients:
A(c17, c0) = -1.00000000                A(c17, c0) = -1.00000000

Obj. Vector:
c(c0) = 1.00000000                      c(c0) = 1.00000000

RHS Vector:
b(c1) = 1.00000000                      b(c1) = 1.00000000

Model name:  'chromaticindex512-7' - run #1    
Objective:   Minimize(obj)
 
SUBMITTED
Model size:    33791 constraints,   36864 variables,       135156 non-zeros.
Sets:                                   0 GUB,                  0 SOS.
 
                     [           +0 < Z < +4           ]
 
Using DUAL simplex for phase 1 and PRIMAL simplex for phase 2.
The primal and dual simplex pricing strategy set to 'Devex'.
 

Relaxed solution                   3 after     118576 iter is B&B base.
 
Feasible solution                  4 after     138562 iter,      1064 nodes (gap 25.0%)

lp_solve optimization was stopped due to time-out.
 
Optimal solution                   4 after     146688 iter,      1911 nodes (gap 25.0%).

Relative numeric accuracy ||*|| = 1.11022e-16

 MEMO: lp_solve version 5.5.2.11 for 64 bit OS, with 64 bit REAL variables.
      In the total iteration count 146688, 43839 (29.9%) were bound flips.
      There were 1218 refactorizations, 0 triggered by time and 0 by density.
       ... on average 84.4 major pivots per refactorization.
      The largest [LUSOL v2.2.1.0] fact(B) had 150748 NZ entries, 1.3x largest basis.
      The maximum B&B level was 1065, 0.0x MIP order, 1065 at the optimal solution.
      The constraint matrix inf-norm is 1, with a dynamic range of 1.
      Time to load data was 0.127 seconds, presolve used 0.025 seconds,
       ... 299.996 seconds in simplex solver, in total 300.148 seconds.
Suboptimal solution

Value of objective function: 4.00000000
